(set-logic QF_LIA)
(set-info :ran/ran2.smt2)
(set-info :smt-lib-version 2.0)
(declare-fun x1 () Int)
(declare-fun x2 () Int)
(declare-fun x3 () Int)
(assert (<= (+ (* 6 x1) (* 8 x2) (* (- 7) x3) ) (- 15)))
(assert (<= (+ (* 2 x1) (* (- 4) x2) (* 2 x3) ) 63))
(assert (<= (+ (* (- 6) x1) (* 10 x2) (* 2 x3) ) (- 18)))
(assert (<= (+ (* 9 x1) (* 1 x2) (* (- 4) x3) ) 9))
(assert (<= (+ (* 2 x1) (* 0 x2) (* 7 x3) ) 23))
(assert (<= (+ (* (- 10) x1) (* (- 2) x2) (* 6 x3) ) 58))
(assert (<= (+ (* 1 x1) (* 0 x2) (* 0 x3) ) 63))
(assert (<= (+ (* (- 1) x1) (* 0 x2) (* 0 x3) ) 63))
(assert (<= (+ (* 0 x1) (* 1 x2) (* 0 x3) ) 63))
(assert (<= (+ (* 0 x1) (* (- 1) x2) (* 0 x3) ) 63))
(assert (<= (+ (* 0 x1) (* 0 x2) (* 1 x3) ) 63))
(assert (<= (+ (* 0 x1) (* 0 x2) (* (- 1) x3) ) 63))
